# AM1 Opt=(MaxCyc=900,NewRedund,Newton) Guess=Read Geom=AllCheck

bbb

0 1

