%nproc=2
# AM1 Opt=(MaxCyc=900,ModRedund,Newton)

Optimize

0 1
